--- Job zonal_with_locational_instrument.gms Start 10/19/21 22:57:54 30.3.0 rc5da09e WEX-WEI x86 64bit/MS Windows
--- GAMS Parameters defined
    Input C:\Users\a.eicke\Documents\Locational-investment-signals\Three node models\zonal_with_locational_instrument.gms
    PageSize 0
    ScrDir C:\Users\a.eicke\Documents\Locational-investment-signals\Three node models\225b\
    SysDir C:\GAMS\win64\30.3\
    LogOption 3
    ErrMsg 1
    ErrorLog 99
    IDE 1
    LstTitleLeftAligned 1
GAMS 30.3.0   Copyright (C) 1987-2020 GAMS Development. All rights reserved
Licensee: Small MUD - 5 User License                     S190305:0326AO-WIN
          Hertie School of Governance GmbH, Governance of DigitalizaDC14808
--- Starting compilation
--- zonal_with_locational_instrument.gms(85) 3 Mb
--- GDXin=C:\Users\a.eicke\Documents\Locational-investment-signals\Three node models\in.gdx
--- zonal_with_locational_instrument.gms(320) 3 Mb
--- Starting execution: elapsed 0:00:00.011
--- zonal_with_locational_instrument.gms(295) 4 Mb
--- Generating MIQCP model LOCI
--- zonal_with_locational_instrument.gms(298) 7 Mb
---   2,339 rows  1,733 columns  6,497 non-zeroes
---   322 nl-code  56 nl-non-zeroes
---   472 discrete-columns
--- zonal_with_locational_instrument.gms(298) 5 Mb
--- Executing CPLEX: elapsed 0:00:00.035

IBM ILOG CPLEX   30.3.0 rc5da09e Released Mar 06, 2020 WEI x86 64bit/MS Window
--- GAMS/Cplex licensed for continuous and discrete problems.
Cplex 12.10.0.0

The search will stop after 25000000 nodes.
Reading data...
Starting Cplex...
Space for names approximately 0.12 Mb
Use option 'names no' to turn use of names off
Version identifier: 12.10.0.0 | 2019-11-26 | 843d4de2ae
CPXPARAM_Advance                                 0
CPXPARAM_Threads                                 1
CPXPARAM_Parallel                                1
CPXPARAM_MIP_Display                             4
CPXPARAM_Simplex_Limits_Iterations               2000000000
CPXPARAM_MIP_Limits_Nodes                        25000000
CPXPARAM_TimeLimit                               40000
CPXPARAM_Tune_TimeLimit                          8000
CPXPARAM_MIP_Tolerances_AbsMIPGap                0
CPXPARAM_MIP_Tolerances_MIPGap                   0.10000000000000001
CPXPARAM_WorkDir                                 "C:\Users\a.eicke\Documents\Locational-investment-signals\Three node models\225b\"
Tried aggregator 2 times.
MIQP Presolve eliminated 796 rows and 244 columns.
MIQP Presolve modified 646 coefficients.
Aggregator did 49 substitutions.
Reduced MIQP has 1494 rows, 1431 columns, and 4412 nonzeros.
Reduced MIQP has 404 binaries, 0 generals, 0 SOSs, and 0 indicators.
Reduced MIQP objective Q matrix has 104 nonzeros.
Presolve time = 0.02 sec. (4.79 ticks)
Probing fixed 0 vars, tightened 156 bounds.
Probing time = 0.00 sec. (1.51 ticks)
Tried aggregator 1 time.
MIQP Presolve modified 156 coefficients.
Reduced MIQP has 1494 rows, 1431 columns, and 4412 nonzeros.
Reduced MIQP has 404 binaries, 0 generals, 0 SOSs, and 0 indicators.
Reduced MIQP objective Q matrix has 104 nonzeros.
Presolve time = 0.02 sec. (2.53 ticks)
Classifier predicts products in MIQP should be linearized.
Probing fixed 0 vars, tightened 9 bounds.
Probing time = 0.00 sec. (1.11 ticks)
Clique table members: 348.
MIP emphasis: balance optimality and feasibility.
MIP search method: dynamic search.
Parallel mode: none, using 1 thread.
Number of nonzeros in lower triangle of Q = 24
Using Approximate Minimum Degree ordering
Total time for automatic ordering = 0.00 sec. (0.00 ticks)
Summary statistics for factor of Q:
  Rows in Factor            = 56
  Integer space required    = 56
  Total non-zeros in factor = 80
  Total FP ops to factor    = 128
Tried aggregator 1 time.
Aggregator did 404 substitutions.
Number of nonzeros in lower triangle of Q = 24
Using Approximate Minimum Degree ordering
Total time for automatic ordering = 0.00 sec. (0.00 ticks)
Summary statistics for factor of Q:
  Rows in Factor            = 56
  Integer space required    = 56
  Total non-zeros in factor = 80
  Total FP ops to factor    = 128
Reduced QP has 1090 rows, 1027 columns, and 3604 nonzeros.
Reduced QP objective Q matrix has 104 nonzeros.
Presolve time = 0.00 sec. (1.14 ticks)
Tried aggregator 1 time.
QP Presolve eliminated 24 rows and 24 columns.
QP Presolve added 0 rows and 56 columns.
Reduced QP has 1122 rows, 1059 columns, and 3692 nonzeros.
Reduced QP objective Q matrix has 32 nonzeros.
Presolve time = 0.00 sec. (0.57 ticks)
Parallel mode: none, using 1 thread for barrier

***NOTE: Found 9 dense columns.

Number of nonzeros in lower triangle of A*A' = 4567
Using Approximate Minimum Degree ordering
Total time for automatic ordering = 0.00 sec. (0.55 ticks)
Summary statistics for Cholesky factor:
  Rows in Factor            = 1131
  Integer space required    = 2676
  Total non-zeros in factor = 12174
  Total FP ops to factor    = 172968
 Itn      Primal Obj        Dual Obj  Prim Inf Upper Inf  Dual Inf          
   0   8.5903303e+05   3.7857070e+10  4.32e+05  2.59e+05  8.06e+05
   1   3.9460520e+05   2.6606920e+10  3.02e+05  1.81e+05  5.64e+05
   2  -1.1004293e+05   1.9507295e+10  2.20e+05  1.32e+05  4.11e+05
   3  -7.7037902e+05   1.0279050e+10  1.14e+05  6.87e+04  2.14e+05
   4  -1.2626232e+06   1.7928465e+09  1.90e+04  1.14e+04  3.56e+04
   5  -9.7871996e+05   1.4405905e+08  1.40e+03  8.37e+02  2.61e+03
   6  -6.0678484e+05   8.0541586e+07  6.45e+02  3.87e+02  1.21e+03
   7  -3.0433367e+05   1.8098297e+07  1.04e+02  6.26e+01  1.95e+02
   8  -2.4109914e+05   1.3176532e+07  4.96e+01  2.97e+01  9.26e+01
   9   1.8939097e+04   3.3697999e+06  4.24e-10  1.14e-09  4.99e-11
  10   1.1052841e+05   7.1843670e+05  8.18e-10  1.26e-09  2.78e-11
  11   1.6473983e+05   3.8881061e+05  5.69e-10  1.13e-09  1.08e-11
  12   1.8534324e+05   2.8031577e+05  5.52e-10  1.20e-09  6.51e-12
  13   1.8883683e+05   2.4587846e+05  5.65e-10  1.40e-09  5.96e-12
  14   1.9627845e+05   2.1634657e+05  1.17e-09  1.29e-09  5.54e-12
  15   1.9849846e+05   2.0775212e+05  9.07e-10  1.33e-09  5.21e-12
  16   1.9975446e+05   2.0291338e+05  1.23e-09  9.87e-10  5.11e-12
  17   2.0026751e+05   2.0085352e+05  2.15e-09  1.32e-09  5.27e-12
  18   2.0037033e+05   2.0046108e+05  5.16e-09  1.15e-09  5.34e-12
  19   2.0038390e+05   2.0039691e+05  1.41e-08  1.23e-09  5.51e-12
  20   2.0038589e+05   2.0038623e+05  4.18e-08  1.32e-09  6.04e-12
  21   2.0038593e+05   2.0038593e+05  1.94e-07  1.54e-09  5.94e-12
  22   2.0038593e+05   2.0038593e+05  1.39e-06  1.53e-09  5.43e-12
  23   2.0038593e+05   2.0038593e+05  2.45e-05  1.54e-09  5.35e-12
Barrier time = 0.03 sec. (20.41 ticks)

Total time on 1 threads = 0.03 sec. (21.56 ticks)
Barrier time = 0.03 sec. (20.43 ticks)

QP crossover.
  Primal and Dual:  Fixing 499 variables.
  Primal:  Pushed 204, exchanged 221.
  Dual  :  Pushed 45, exchanged 205.
Total crossover time = 0.03 sec. (11.09 ticks)

Total time on 1 threads = 0.06 sec. (32.79 ticks)
Root relaxation solution time = 0.06 sec. (32.79 ticks)

        Nodes                                         Cuts/
   Node  Left     Objective  IInf  Best Integer    Best Bound    ItCnt     Gap

      0     0   200385.9290   199                 200385.9290       23         
      0     0   200384.0577   199                   Cuts: 174      348         
      0     0   200384.0468   199                   Cuts: 232      709         
      0     0   200346.3418   199                   Cuts: 209     1401         
      0     0   200323.5706   199                   Cuts: 161     2099         
      0     0   200312.5767   199                   Cuts: 163     2514         
      0     0   200260.2316   199                   Cuts: 104     2972         
      0     0   200259.8299   199                   Cuts: 160     3194         
*     0+    0                       189317.3606   200259.8299             5.78%
Found incumbent of value 189317.360635 after 2.33 sec. (1485.34 ticks)

Clique cuts applied:  3
Implied bound cuts applied:  19
Flow cuts applied:  207
Mixed integer rounding cuts applied:  79
Gomory fractional cuts applied:  6

Root node processing (before b&c):
  Real time             =    2.33 sec. (1485.52 ticks)
Sequential b&c:
  Real time             =    0.00 sec. (0.00 ticks)
                          ------------
Total (root+branch&cut) =    2.33 sec. (1485.52 ticks)
MIQP status(102): integer optimal, tolerance
Cplex Time: 2.33sec (det. 1485.53 ticks)
Fixing integer variables, and solving final QP..
Version identifier: 12.10.0.0 | 2019-11-26 | 843d4de2ae
CPXPARAM_Advance                                 2
CPXPARAM_Threads                                 1
CPXPARAM_Parallel                                1
CPXPARAM_MIP_Display                             4
CPXPARAM_Simplex_Limits_Iterations               2000000000
CPXPARAM_MIP_Limits_Nodes                        25000000
CPXPARAM_TimeLimit                               40000
CPXPARAM_Tune_TimeLimit                          8000
CPXPARAM_MIP_Tolerances_AbsMIPGap                0
CPXPARAM_MIP_Tolerances_MIPGap                   0.10000000000000001
CPXPARAM_WorkDir                                 "C:\Users\a.eicke\Documents\Locational-investment-signals\Three node models\225b\"
Number of nonzeros in lower triangle of Q = 24
Using Approximate Minimum Degree ordering
Total time for automatic ordering = 0.00 sec. (0.00 ticks)
Summary statistics for factor of Q:
  Rows in Factor            = 56
  Integer space required    = 56
  Total non-zeros in factor = 80
  Total FP ops to factor    = 128
Tried aggregator 1 time.
QP Presolve eliminated 1830 rows and 1311 columns.
QP Presolve added 0 rows and 56 columns.
Aggregator did 171 substitutions.
Reduced QP has 394 rows, 307 columns, and 1298 nonzeros.
Reduced QP objective Q matrix has 8 nonzeros.
Presolve time = 0.00 sec. (1.59 ticks)
Parallel mode: none, using 1 thread for barrier

***NOTE: Found 9 dense columns.

Number of nonzeros in lower triangle of A*A' = 746
Using Approximate Minimum Degree ordering
Total time for automatic ordering = 0.00 sec. (0.05 ticks)
Summary statistics for Cholesky factor:
  Rows in Factor            = 403
  Integer space required    = 806
  Total non-zeros in factor = 3428
  Total FP ops to factor    = 38010
 Itn      Primal Obj        Dual Obj  Prim Inf Upper Inf  Dual Inf          
   0   1.9438839e+05   2.8160300e+07  4.58e+03  0.00e+00  3.15e+05
   1   1.6831894e+05   1.3361121e+07  1.68e+03  2.20e-13  1.15e+05
   2   1.5429662e+05   1.3815289e+06  1.16e+02  1.05e-12  8.03e+03
   3   1.6131778e+05   3.6251719e+05  1.63e+01  7.96e-13  1.13e+03
   4   1.7569193e+05   2.5124665e+05  4.60e+00  8.21e-13  3.22e+02
   5   1.8042946e+05   2.2777506e+05  2.45e+00  7.60e-13  1.75e+02
   6   1.8571676e+05   2.0352240e+05  5.44e-01  9.38e-13  4.62e+01
   7   1.8762047e+05   1.9648135e+05  2.08e-01  5.97e-13  1.86e+01
   8   1.8837964e+05   1.9204867e+05  4.20e-02  9.56e-13  3.93e+00
   9   1.8904565e+05   1.9010656e+05  1.16e-02  7.99e-13  1.19e+00
  10   1.8918808e+05   1.8970793e+05  4.51e-03  7.96e-13  4.82e-01
  11   1.8928019e+05   1.8943228e+05  1.32e-03  9.84e-13  1.45e-01
  12   1.8931586e+05   1.8932188e+05  5.06e-05  7.67e-13  5.53e-03
  13   1.8931735e+05   1.8931739e+05  2.49e-07  8.42e-13  2.71e-05
  14   1.8931736e+05   1.8931736e+05  1.24e-09  9.84e-13  1.33e-07
Barrier time = 0.02 sec. (5.49 ticks)

Total time on 1 threads = 0.02 sec. (5.49 ticks)
QP status(1): optimal
Cplex Time: 0.02sec (det. 5.49 ticks)

Solution satisfies tolerances.

MIP Solution:       189317.360635    (3194 iterations, 0 nodes)
Final Solve:        189317.360582    (0 iterations)

Best possible:      200259.829921
Absolute gap:        10942.469287
Relative gap:            0.054641

--- Restarting execution
--- zonal_with_locational_instrument.gms(298) 2 Mb
--- Reading solution for model LOCI
--- Executing after solve: elapsed 0:00:02.560
--- zonal_with_locational_instrument.gms(320) 3 Mb
--- GDX File C:\Users\a.eicke\Documents\Locational-investment-signals\Three node models\Output/with_instrument.gdx
*** Status: Normal completion
--- Job zonal_with_locational_instrument.gms Stop 10/19/21 22:57:57 elapsed 0:00:02.564
